p cnf 963 2472
51 -2 -1 0
-51 2 0
-51 1 0
52 -51 -3 0
-52 51 0
-52 3 0
53 -5 -4 0
-53 5 0
-53 4 0
54 -53 -696 0
-54 53 0
-54 696 0
55 -697 -698 0
-55 697 0
-55 698 0
56 -699 -700 0
-56 699 0
-56 700 0
57 -56 -9 0
-57 56 0
-57 9 0
58 -701 -55 0
-58 701 0
-58 55 0
59 -702 -10 0
-59 702 0
-59 10 0
60 -59 -12 0
-60 59 0
-60 12 0
61 -703 -58 0
-61 703 0
-61 58 0
62 -704 -705 0
-62 704 0
-62 705 0
63 -62 -706 0
-63 62 0
-63 706 0
64 -707 -61 0
-64 707 0
-64 61 0
65 -708 -709 0
-65 708 0
-65 709 0
66 -65 -710 0
-66 65 0
-66 710 0
67 -711 -64 0
-67 711 0
-67 64 0
68 -19 -712 0
-68 19 0
-68 712 0
69 -68 -713 0
-69 68 0
-69 713 0
70 -714 -67 0
-70 714 0
-70 67 0
71 -715 -716 0
-71 715 0
-71 716 0
72 -71 -717 0
-72 71 0
-72 717 0
73 -718 -70 0
-73 718 0
-73 70 0
74 -23 -8 0
-74 23 0
-74 8 0
75 -74 -6 0
-75 74 0
-75 6 0
76 -719 -73 0
-76 719 0
-76 73 0
77 -720 -24 0
-77 720 0
-77 24 0
78 -77 -706 0
-78 77 0
-78 706 0
79 -721 -76 0
-79 721 0
-79 76 0
80 -27 -26 0
-80 27 0
-80 26 0
81 -80 -12 0
-81 80 0
-81 12 0
82 -722 -79 0
-82 722 0
-82 79 0
83 -29 -723 0
-83 29 0
-83 723 0
84 -83 -30 0
-84 83 0
-84 30 0
85 -724 -82 0
-85 724 0
-85 82 0
86 -700 -725 0
-86 700 0
-86 725 0
87 -86 -31 0
-87 86 0
-87 31 0
88 -726 -85 0
-88 726 0
-88 85 0
89 -727 -725 0
-89 727 0
-89 725 0
90 -89 -717 0
-90 89 0
-90 717 0
91 -728 -88 0
-91 728 0
-91 88 0
92 -729 -13 0
-92 729 0
-92 13 0
93 -92 -14 0
-93 92 0
-93 14 0
94 -730 -91 0
-94 730 0
-94 91 0
95 -731 -732 0
-95 731 0
-95 732 0
96 -95 -17 0
-96 95 0
-96 17 0
97 -733 -94 0
-97 733 0
-97 94 0
98 -35 -709 0
-98 35 0
-98 709 0
99 -98 -36 0
-99 98 0
-99 36 0
100 -734 -97 0
-100 734 0
-100 97 0
101 -735 -736 0
-101 735 0
-101 736 0
102 -101 -37 0
-102 101 0
-102 37 0
103 -737 -100 0
-103 737 0
-103 100 0
104 -731 -736 0
-104 731 0
-104 736 0
105 -104 -14 0
-105 104 0
-105 14 0
106 -738 -103 0
-106 738 0
-106 103 0
107 -38 -7 0
-107 38 0
-107 7 0
108 -107 -739 0
-108 107 0
-108 739 0
109 -740 -106 0
-109 740 0
-109 106 0
110 -40 -39 0
-110 40 0
-110 39 0
111 -110 -741 0
-111 110 0
-111 741 0
112 -742 -109 0
-112 742 0
-112 109 0
113 -98 -4 0
-113 98 0
-113 4 0
114 -743 -112 0
-114 743 0
-114 112 0
115 -38 -744 0
-115 38 0
-115 744 0
116 -115 -32 0
-116 115 0
-116 32 0
117 -745 -114 0
-117 745 0
-117 114 0
118 -746 -702 0
-118 746 0
-118 702 0
119 -118 -720 0
-119 118 0
-119 720 0
120 -747 -117 0
-120 747 0
-120 117 0
121 -748 -749 0
-121 748 0
-121 749 0
122 -121 -702 0
-122 121 0
-122 702 0
123 -750 -120 0
-123 750 0
-123 120 0
124 -748 -26 0
-124 748 0
-124 26 0
125 -124 -40 0
-125 124 0
-125 40 0
126 -751 -123 0
-126 751 0
-126 123 0
127 -34 -29 0
-127 34 0
-127 29 0
128 -127 -44 0
-128 127 0
-128 44 0
129 -752 -126 0
-129 752 0
-129 126 0
130 -26 -699 0
-130 26 0
-130 699 0
131 -130 -753 0
-131 130 0
-131 753 0
132 -754 -129 0
-132 754 0
-132 129 0
133 -23 -704 0
-133 23 0
-133 704 0
134 -133 -753 0
-134 133 0
-134 753 0
135 -755 -132 0
-135 755 0
-135 132 0
136 -756 -33 0
-136 756 0
-136 33 0
137 -136 -9 0
-137 136 0
-137 9 0
138 -757 -135 0
-138 757 0
-138 135 0
139 -758 -704 0
-139 758 0
-139 704 0
140 -139 -759 0
-140 139 0
-140 759 0
141 -760 -138 0
-141 760 0
-141 138 0
142 -761 -35 0
-142 761 0
-142 35 0
143 -142 -45 0
-143 142 0
-143 45 0
144 -762 -141 0
-144 762 0
-144 141 0
145 -763 -3 0
-145 763 0
-145 3 0
146 -145 -717 0
-146 145 0
-146 717 0
147 -764 -144 0
-147 764 0
-147 144 0
148 -46 -18 0
-148 46 0
-148 18 0
149 -148 -765 0
-149 148 0
-149 765 0
150 -766 -147 0
-150 766 0
-150 147 0
151 -763 -24 0
-151 763 0
-151 24 0
152 -151 -37 0
-152 151 0
-152 37 0
153 -767 -150 0
-153 767 0
-153 150 0
154 -29 -709 0
-154 29 0
-154 709 0
155 -154 -768 0
-155 154 0
-155 768 0
156 -769 -153 0
-156 769 0
-156 153 0
157 -5 -1 0
-157 5 0
-157 1 0
158 -157 -33 0
-158 157 0
-158 33 0
159 -770 -156 0
-159 770 0
-159 156 0
160 -42 -15 0
-160 42 0
-160 15 0
161 -160 -744 0
-161 160 0
-161 744 0
162 -771 -159 0
-162 771 0
-162 159 0
163 -29 -9 0
-163 29 0
-163 9 0
164 -163 -41 0
-164 163 0
-164 41 0
165 -772 -162 0
-165 772 0
-165 162 0
166 -49 -32 0
-166 49 0
-166 32 0
167 -166 -14 0
-167 166 0
-167 14 0
168 -773 -165 0
-168 773 0
-168 165 0
169 -696 -5 0
-169 696 0
-169 5 0
170 -169 -768 0
-170 169 0
-170 768 0
171 -774 -168 0
-171 774 0
-171 168 0
172 -31 -25 0
-172 31 0
-172 25 0
173 -172 -41 0
-173 172 0
-173 41 0
174 -775 -171 0
-174 775 0
-174 171 0
175 -45 -716 0
-175 45 0
-175 716 0
176 -175 -37 0
-176 175 0
-176 37 0
177 -776 -174 0
-177 776 0
-177 174 0
178 -46 -23 0
-178 46 0
-178 23 0
179 -178 -41 0
-179 178 0
-179 41 0
180 -777 -177 0
-180 777 0
-180 177 0
181 -761 -778 0
-181 761 0
-181 778 0
182 -181 -699 0
-182 181 0
-182 699 0
183 -779 -180 0
-183 779 0
-183 180 0
184 -746 -24 0
-184 746 0
-184 24 0
185 -184 -753 0
-185 184 0
-185 753 0
186 -780 -183 0
-186 780 0
-186 183 0
187 -49 -21 0
-187 49 0
-187 21 0
188 -187 -781 0
-188 187 0
-188 781 0
189 -782 -186 0
-189 782 0
-189 186 0
190 -28 -716 0
-190 28 0
-190 716 0
191 -190 -20 0
-191 190 0
-191 20 0
192 -783 -189 0
-192 783 0
-192 189 0
193 -712 -8 0
-193 712 0
-193 8 0
194 -193 -31 0
-194 193 0
-194 31 0
195 -784 -192 0
-195 784 0
-195 192 0
196 -50 -732 0
-196 50 0
-196 732 0
197 -196 -6 0
-197 196 0
-197 6 0
198 -785 -195 0
-198 785 0
-198 195 0
199 -735 -18 0
-199 735 0
-199 18 0
200 -199 -778 0
-200 199 0
-200 778 0
201 -786 -198 0
-201 786 0
-201 198 0
202 -48 -778 0
-202 48 0
-202 778 0
203 -202 -739 0
-203 202 0
-203 739 0
204 -787 -201 0
-204 787 0
-204 201 0
205 -758 -26 0
-205 758 0
-205 26 0
206 -205 -31 0
-206 205 0
-206 31 0
207 -788 -204 0
-207 788 0
-207 204 0
208 -702 -700 0
-208 702 0
-208 700 0
209 -208 -763 0
-209 208 0
-209 763 0
210 -789 -207 0
-210 789 0
-210 207 0
211 -713 -6 0
-211 713 0
-211 6 0
212 -211 -720 0
-212 211 0
-212 720 0
213 -790 -210 0
-213 790 0
-213 210 0
214 -791 -10 0
-214 791 0
-214 10 0
215 -214 -696 0
-215 214 0
-215 696 0
216 -792 -213 0
-216 792 0
-216 213 0
217 -716 -736 0
-217 716 0
-217 736 0
218 -217 -37 0
-218 217 0
-218 37 0
219 -793 -216 0
-219 793 0
-219 216 0
220 -749 -705 0
-220 749 0
-220 705 0
221 -220 -18 0
-221 220 0
-221 18 0
222 -794 -219 0
-222 794 0
-222 219 0
223 -761 -758 0
-223 761 0
-223 758 0
224 -223 -765 0
-224 223 0
-224 765 0
225 -795 -222 0
-225 795 0
-225 222 0
226 -47 -735 0
-226 47 0
-226 735 0
227 -226 -31 0
-227 226 0
-227 31 0
228 -796 -225 0
-228 796 0
-228 225 0
229 -709 -1 0
-229 709 0
-229 1 0
230 -229 -713 0
-230 229 0
-230 713 0
231 -797 -228 0
-231 797 0
-231 228 0
232 -746 -20 0
-232 746 0
-232 20 0
233 -232 -753 0
-233 232 0
-233 753 0
234 -798 -231 0
-234 798 0
-234 231 0
235 -746 -8 0
-235 746 0
-235 8 0
236 -235 -696 0
-236 235 0
-236 696 0
237 -799 -234 0
-237 799 0
-237 234 0
238 -13 -699 0
-238 13 0
-238 699 0
239 -238 -800 0
-239 238 0
-239 800 0
240 -801 -237 0
-240 801 0
-240 237 0
241 -46 -744 0
-241 46 0
-241 744 0
242 -241 -14 0
-242 241 0
-242 14 0
243 -802 -240 0
-243 802 0
-243 240 0
244 -56 -33 0
-244 56 0
-244 33 0
245 -803 -243 0
-245 803 0
-245 243 0
246 -759 -720 0
-246 759 0
-246 720 0
247 -246 -706 0
-247 246 0
-247 706 0
248 -804 -245 0
-248 804 0
-248 245 0
249 -731 -709 0
-249 731 0
-249 709 0
250 -249 -36 0
-250 249 0
-250 36 0
251 -805 -248 0
-251 805 0
-251 248 0
252 -806 -756 0
-252 806 0
-252 756 0
253 -252 -16 0
-253 252 0
-253 16 0
254 -807 -251 0
-254 807 0
-254 251 0
255 -735 -4 0
-255 735 0
-255 4 0
256 -255 -8 0
-256 255 0
-256 8 0
257 -808 -254 0
-257 808 0
-257 254 0
258 -800 -809 0
-258 800 0
-258 809 0
259 -258 -45 0
-259 258 0
-259 45 0
260 -810 -257 0
-260 810 0
-260 257 0
261 -746 -4 0
-261 746 0
-261 4 0
262 -261 -768 0
-262 261 0
-262 768 0
263 -811 -260 0
-263 811 0
-263 260 0
264 -18 -1 0
-264 18 0
-264 1 0
265 -264 -706 0
-265 264 0
-265 706 0
266 -812 -263 0
-266 812 0
-266 263 0
267 -33 -716 0
-267 33 0
-267 716 0
268 -267 -710 0
-268 267 0
-268 710 0
269 -813 -266 0
-269 813 0
-269 266 0
270 -731 -10 0
-270 731 0
-270 10 0
271 -270 -20 0
-271 270 0
-271 20 0
272 -814 -269 0
-272 814 0
-272 269 0
273 -16 -781 0
-273 16 0
-273 781 0
274 -273 -11 0
-274 273 0
-274 11 0
275 -815 -272 0
-275 815 0
-275 272 0
276 -190 -705 0
-276 190 0
-276 705 0
277 -816 -275 0
-277 816 0
-277 275 0
278 -809 -705 0
-278 809 0
-278 705 0
279 -278 -817 0
-279 278 0
-279 817 0
280 -818 -277 0
-280 818 0
-280 277 0
281 -723 -725 0
-281 723 0
-281 725 0
282 -281 -817 0
-282 281 0
-282 817 0
283 -819 -280 0
-283 819 0
-283 280 0
284 -712 -781 0
-284 712 0
-284 781 0
285 -284 -19 0
-285 284 0
-285 19 0
286 -820 -283 0
-286 820 0
-286 283 0
287 -86 -768 0
-287 86 0
-287 768 0
288 -821 -286 0
-288 821 0
-288 286 0
289 -40 -723 0
-289 40 0
-289 723 0
290 -289 -710 0
-290 289 0
-290 710 0
291 -822 -288 0
-291 822 0
-291 288 0
292 -33 -25 0
-292 33 0
-292 25 0
293 -292 -741 0
-293 292 0
-293 741 0
294 -823 -291 0
-294 823 0
-294 291 0
295 -806 -768 0
-295 806 0
-295 768 0
296 -295 -37 0
-296 295 0
-296 37 0
297 -824 -294 0
-297 824 0
-297 294 0
298 -26 -19 0
-298 26 0
-298 19 0
299 -298 -12 0
-299 298 0
-299 12 0
300 -825 -297 0
-300 825 0
-300 297 0
301 -806 -716 0
-301 806 0
-301 716 0
302 -301 -717 0
-302 301 0
-302 717 0
303 -826 -300 0
-303 826 0
-303 300 0
304 -40 -781 0
-304 40 0
-304 781 0
305 -304 -4 0
-305 304 0
-305 4 0
306 -827 -303 0
-306 827 0
-306 303 0
307 -759 -746 0
-307 759 0
-307 746 0
308 -307 -20 0
-308 307 0
-308 20 0
309 -828 -306 0
-309 828 0
-309 306 0
310 -26 -744 0
-310 26 0
-310 744 0
311 -310 -729 0
-311 310 0
-311 729 0
312 -829 -309 0
-312 829 0
-312 309 0
313 -42 -38 0
-313 42 0
-313 38 0
314 -313 -9 0
-314 313 0
-314 9 0
315 -830 -312 0
-315 830 0
-315 312 0
316 -28 -12 0
-316 28 0
-316 12 0
317 -316 -717 0
-317 316 0
-317 717 0
318 -831 -315 0
-318 831 0
-318 315 0
319 -39 -832 0
-319 39 0
-319 832 0
320 -319 -696 0
-320 319 0
-320 696 0
321 -833 -318 0
-321 833 0
-321 318 0
322 -749 -781 0
-322 749 0
-322 781 0
323 -322 -696 0
-323 322 0
-323 696 0
324 -834 -321 0
-324 834 0
-324 321 0
325 -731 -22 0
-325 731 0
-325 22 0
326 -325 -20 0
-326 325 0
-326 20 0
327 -835 -324 0
-327 835 0
-327 324 0
328 -29 -702 0
-328 29 0
-328 702 0
329 -328 -9 0
-329 328 0
-329 9 0
330 -836 -327 0
-330 836 0
-330 327 0
331 -13 -7 0
-331 13 0
-331 7 0
332 -331 -41 0
-332 331 0
-332 41 0
333 -837 -330 0
-333 837 0
-333 330 0
334 -748 -40 0
-334 748 0
-334 40 0
335 -334 -800 0
-335 334 0
-335 800 0
336 -838 -333 0
-336 838 0
-336 333 0
337 -753 -715 0
-337 753 0
-337 715 0
338 -337 -36 0
-338 337 0
-338 36 0
339 -839 -336 0
-339 839 0
-339 336 0
340 -840 -21 0
-340 840 0
-340 21 0
341 -340 -43 0
-341 340 0
-341 43 0
342 -841 -339 0
-342 841 0
-342 339 0
343 -50 -39 0
-343 50 0
-343 39 0
344 -343 -699 0
-344 343 0
-344 699 0
345 -842 -342 0
-345 842 0
-345 342 0
346 -843 -8 0
-346 843 0
-346 8 0
347 -346 -32 0
-347 346 0
-347 32 0
348 -844 -345 0
-348 844 0
-348 345 0
349 -38 -37 0
-349 38 0
-349 37 0
350 -349 -41 0
-350 349 0
-350 41 0
351 -845 -348 0
-351 845 0
-351 348 0
352 -16 -744 0
-352 16 0
-352 744 0
353 -352 -37 0
-353 352 0
-353 37 0
354 -846 -351 0
-354 846 0
-354 351 0
355 -48 -732 0
-355 48 0
-355 732 0
356 -355 -24 0
-356 355 0
-356 24 0
357 -847 -354 0
-357 847 0
-357 354 0
358 -49 -22 0
-358 49 0
-358 22 0
359 -358 -717 0
-359 358 0
-359 717 0
360 -848 -357 0
-360 848 0
-360 357 0
361 -49 -778 0
-361 49 0
-361 778 0
362 -361 -849 0
-362 361 0
-362 849 0
363 -850 -360 0
-363 850 0
-363 360 0
364 -756 -702 0
-364 756 0
-364 702 0
365 -364 -30 0
-365 364 0
-365 30 0
366 -851 -363 0
-366 851 0
-366 363 0
367 -38 -18 0
-367 38 0
-367 18 0
368 -367 -27 0
-368 367 0
-368 27 0
369 -852 -366 0
-369 852 0
-369 366 0
370 -4 -781 0
-370 4 0
-370 781 0
371 -370 -699 0
-371 370 0
-371 699 0
372 -853 -369 0
-372 853 0
-372 369 0
373 -40 -22 0
-373 40 0
-373 22 0
374 -373 -9 0
-374 373 0
-374 9 0
375 -854 -372 0
-375 854 0
-375 372 0
376 -40 -1 0
-376 40 0
-376 1 0
377 -376 -763 0
-377 376 0
-377 763 0
378 -855 -375 0
-378 855 0
-378 375 0
379 -748 -705 0
-379 748 0
-379 705 0
380 -379 -24 0
-380 379 0
-380 24 0
381 -856 -378 0
-381 856 0
-381 378 0
382 -759 -840 0
-382 759 0
-382 840 0
383 -382 -36 0
-383 382 0
-383 36 0
384 -857 -381 0
-384 857 0
-384 381 0
385 -49 -696 0
-385 49 0
-385 696 0
386 -385 -817 0
-386 385 0
-386 817 0
387 -858 -384 0
-387 858 0
-387 384 0
388 -735 -11 0
-388 735 0
-388 11 0
389 -388 -736 0
-389 388 0
-389 736 0
390 -859 -387 0
-390 859 0
-390 387 0
391 -756 -1 0
-391 756 0
-391 1 0
392 -391 -806 0
-392 391 0
-392 806 0
393 -860 -390 0
-393 860 0
-393 390 0
394 -832 -10 0
-394 832 0
-394 10 0
395 -394 -736 0
-395 394 0
-395 736 0
396 -861 -393 0
-396 861 0
-396 393 0
397 -47 -29 0
-397 47 0
-397 29 0
398 -397 -744 0
-398 397 0
-398 744 0
399 -862 -396 0
-399 862 0
-399 396 0
400 -46 -749 0
-400 46 0
-400 749 0
401 -400 -35 0
-401 400 0
-401 35 0
402 -863 -399 0
-402 863 0
-402 399 0
403 -791 -19 0
-403 791 0
-403 19 0
404 -403 -739 0
-404 403 0
-404 739 0
405 -864 -402 0
-405 864 0
-405 402 0
406 -39 -731 0
-406 39 0
-406 731 0
407 -406 -806 0
-407 406 0
-407 806 0
408 -865 -405 0
-408 865 0
-408 405 0
409 -791 -4 0
-409 791 0
-409 4 0
410 -409 -20 0
-410 409 0
-410 20 0
411 -866 -408 0
-411 866 0
-411 408 0
412 -38 -781 0
-412 38 0
-412 781 0
413 -412 -37 0
-413 412 0
-413 37 0
414 -867 -411 0
-414 867 0
-414 411 0
415 -868 -708 0
-415 868 0
-415 708 0
416 -415 -696 0
-416 415 0
-416 696 0
417 -869 -414 0
-417 869 0
-417 414 0
418 -702 -725 0
-418 702 0
-418 725 0
419 -418 -6 0
-419 418 0
-419 6 0
420 -870 -417 0
-420 870 0
-420 417 0
421 -48 -699 0
-421 48 0
-421 699 0
422 -421 -25 0
-422 421 0
-422 25 0
423 -871 -420 0
-423 871 0
-423 420 0
424 -22 -712 0
-424 22 0
-424 712 0
425 -424 -753 0
-425 424 0
-425 753 0
426 -872 -423 0
-426 872 0
-426 423 0
427 -840 -15 0
-427 840 0
-427 15 0
428 -427 -34 0
-428 427 0
-428 34 0
429 -873 -426 0
-429 873 0
-429 426 0
430 -44 -8 0
-430 44 0
-430 8 0
431 -430 -41 0
-431 430 0
-431 41 0
432 -874 -429 0
-432 874 0
-432 429 0
433 -11 -4 0
-433 11 0
-433 4 0
434 -433 -699 0
-434 433 0
-434 699 0
435 -875 -432 0
-435 875 0
-435 432 0
436 -255 -763 0
-436 255 0
-436 763 0
437 -876 -435 0
-437 876 0
-437 435 0
438 -50 -24 0
-438 50 0
-438 24 0
439 -438 -713 0
-439 438 0
-439 713 0
440 -877 -437 0
-440 877 0
-440 437 0
441 -21 -19 0
-441 21 0
-441 19 0
442 -441 -710 0
-442 441 0
-442 710 0
443 -878 -440 0
-443 878 0
-443 440 0
444 -735 -7 0
-444 735 0
-444 7 0
445 -444 -14 0
-445 444 0
-445 14 0
446 -879 -443 0
-446 879 0
-446 443 0
447 -715 -712 0
-447 715 0
-447 712 0
448 -447 -765 0
-448 447 0
-448 765 0
449 -880 -446 0
-449 880 0
-449 446 0
450 -868 -729 0
-450 868 0
-450 729 0
451 -450 -717 0
-451 450 0
-451 717 0
452 -881 -449 0
-452 881 0
-452 449 0
453 -43 -33 0
-453 43 0
-453 33 0
454 -453 -9 0
-454 453 0
-454 9 0
455 -882 -452 0
-455 882 0
-455 452 0
456 -749 -832 0
-456 749 0
-456 832 0
457 -456 -48 0
-457 456 0
-457 48 0
458 -883 -455 0
-458 883 0
-458 455 0
459 -759 -35 0
-459 759 0
-459 35 0
460 -459 -8 0
-460 459 0
-460 8 0
461 -884 -458 0
-461 884 0
-461 458 0
462 -18 -4 0
-462 18 0
-462 4 0
463 -462 -19 0
-463 462 0
-463 19 0
464 -885 -461 0
-464 885 0
-464 461 0
465 -48 -705 0
-465 48 0
-465 705 0
466 -465 -732 0
-466 465 0
-466 732 0
467 -886 -464 0
-467 886 0
-467 464 0
468 -753 -22 0
-468 753 0
-468 22 0
469 -468 -768 0
-469 468 0
-469 768 0
470 -887 -467 0
-470 887 0
-470 467 0
471 -40 -15 0
-471 40 0
-471 15 0
472 -471 -696 0
-472 471 0
-472 696 0
473 -888 -470 0
-473 888 0
-473 470 0
474 -749 -725 0
-474 749 0
-474 725 0
475 -474 -35 0
-475 474 0
-475 35 0
476 -889 -473 0
-476 889 0
-476 473 0
477 -38 -15 0
-477 38 0
-477 15 0
478 -477 -704 0
-478 477 0
-478 704 0
479 -890 -476 0
-479 890 0
-479 476 0
480 -370 -19 0
-480 370 0
-480 19 0
481 -891 -479 0
-481 891 0
-481 479 0
482 -40 -24 0
-482 40 0
-482 24 0
483 -482 -736 0
-483 482 0
-483 736 0
484 -892 -481 0
-484 892 0
-484 481 0
485 -28 -19 0
-485 28 0
-485 19 0
486 -485 -710 0
-486 485 0
-486 710 0
487 -893 -484 0
-487 893 0
-487 484 0
488 -761 -749 0
-488 761 0
-488 749 0
489 -488 -763 0
-489 488 0
-489 763 0
490 -894 -487 0
-490 894 0
-490 487 0
491 -29 -4 0
-491 29 0
-491 4 0
492 -491 -41 0
-492 491 0
-492 41 0
493 -895 -490 0
-493 895 0
-493 490 0
494 -748 -715 0
-494 748 0
-494 715 0
495 -494 -765 0
-495 494 0
-495 765 0
496 -896 -493 0
-496 896 0
-496 493 0
497 -746 -28 0
-497 746 0
-497 28 0
498 -497 -25 0
-498 497 0
-498 25 0
499 -897 -496 0
-499 897 0
-499 496 0
500 -46 -2 0
-500 46 0
-500 2 0
501 -500 -4 0
-501 500 0
-501 4 0
502 -898 -499 0
-502 898 0
-502 499 0
503 -759 -24 0
-503 759 0
-503 24 0
504 -503 -37 0
-504 503 0
-504 37 0
505 -899 -502 0
-505 899 0
-505 502 0
506 -715 -708 0
-506 715 0
-506 708 0
507 -506 -800 0
-507 506 0
-507 800 0
508 -900 -505 0
-508 900 0
-508 505 0
509 -48 -47 0
-509 48 0
-509 47 0
510 -509 -732 0
-510 509 0
-510 732 0
511 -901 -508 0
-511 901 0
-511 508 0
512 -10 -700 0
-512 10 0
-512 700 0
513 -512 -696 0
-513 512 0
-513 696 0
514 -902 -511 0
-514 902 0
-514 511 0
515 -763 -27 0
-515 763 0
-515 27 0
516 -515 -6 0
-516 515 0
-516 6 0
517 -903 -514 0
-517 903 0
-517 514 0
518 -46 -39 0
-518 46 0
-518 39 0
519 -518 -24 0
-519 518 0
-519 24 0
520 -904 -517 0
-520 904 0
-520 517 0
521 -43 -868 0
-521 43 0
-521 868 0
522 -521 -741 0
-522 521 0
-522 741 0
523 -905 -520 0
-523 905 0
-523 520 0
524 -791 -744 0
-524 791 0
-524 744 0
525 -524 -36 0
-525 524 0
-525 36 0
526 -906 -523 0
-526 906 0
-526 523 0
527 -40 -19 0
-527 40 0
-527 19 0
528 -527 -710 0
-528 527 0
-528 710 0
529 -907 -526 0
-529 907 0
-529 526 0
530 -46 -19 0
-530 46 0
-530 19 0
531 -530 -736 0
-531 530 0
-531 736 0
532 -908 -529 0
-532 908 0
-532 529 0
533 -778 -28 0
-533 778 0
-533 28 0
534 -533 -729 0
-534 533 0
-534 729 0
535 -909 -532 0
-535 909 0
-535 532 0
536 -735 -725 0
-536 735 0
-536 725 0
537 -536 -8 0
-537 536 0
-537 8 0
538 -910 -535 0
-538 910 0
-538 535 0
539 -715 -13 0
-539 715 0
-539 13 0
540 -539 -16 0
-540 539 0
-540 16 0
541 -911 -538 0
-541 911 0
-541 538 0
542 -806 -23 0
-542 806 0
-542 23 0
543 -542 -710 0
-543 542 0
-543 710 0
544 -912 -541 0
-544 912 0
-544 541 0
545 -34 -708 0
-545 34 0
-545 708 0
546 -545 -31 0
-546 545 0
-546 31 0
547 -913 -544 0
-547 913 0
-547 544 0
548 -763 -832 0
-548 763 0
-548 832 0
549 -548 -713 0
-549 548 0
-549 713 0
550 -914 -547 0
-550 914 0
-550 547 0
551 -723 -15 0
-551 723 0
-551 15 0
552 -551 -34 0
-552 551 0
-552 34 0
553 -915 -550 0
-553 915 0
-553 550 0
554 -40 -708 0
-554 40 0
-554 708 0
555 -554 -11 0
-555 554 0
-555 11 0
556 -916 -553 0
-556 916 0
-556 553 0
557 -729 -849 0
-557 729 0
-557 849 0
558 -557 -12 0
-558 557 0
-558 12 0
559 -917 -556 0
-559 917 0
-559 556 0
560 -542 -30 0
-560 542 0
-560 30 0
561 -918 -559 0
-561 918 0
-561 559 0
562 -735 -727 0
-562 735 0
-562 727 0
563 -562 -765 0
-563 562 0
-563 765 0
564 -919 -561 0
-564 919 0
-564 561 0
565 -761 -40 0
-565 761 0
-565 40 0
566 -565 -763 0
-566 565 0
-566 763 0
567 -920 -564 0
-567 920 0
-567 564 0
568 -29 -5 0
-568 29 0
-568 5 0
569 -568 -12 0
-569 568 0
-569 12 0
570 -921 -567 0
-570 921 0
-570 567 0
571 -791 -708 0
-571 791 0
-571 708 0
572 -571 -11 0
-572 571 0
-572 11 0
573 -922 -570 0
-573 922 0
-573 570 0
574 -708 -15 0
-574 708 0
-574 15 0
575 -574 -20 0
-575 574 0
-575 20 0
576 -923 -573 0
-576 923 0
-576 573 0
577 -42 -732 0
-577 42 0
-577 732 0
578 -577 -31 0
-578 577 0
-578 31 0
579 -924 -576 0
-579 924 0
-579 576 0
580 -34 -5 0
-580 34 0
-580 5 0
581 -580 -33 0
-581 580 0
-581 33 0
582 -925 -579 0
-582 925 0
-582 579 0
583 -29 -800 0
-583 29 0
-583 800 0
584 -583 -37 0
-584 583 0
-584 37 0
585 -926 -582 0
-585 926 0
-585 582 0
586 -735 -702 0
-586 735 0
-586 702 0
587 -586 -717 0
-587 586 0
-587 717 0
588 -927 -585 0
-588 927 0
-588 585 0
589 -723 -744 0
-589 723 0
-589 744 0
590 -589 -8 0
-590 589 0
-590 8 0
591 -928 -588 0
-591 928 0
-591 588 0
592 -19 -2 0
-592 19 0
-592 2 0
593 -592 -768 0
-593 592 0
-593 768 0
594 -929 -591 0
-594 929 0
-594 591 0
595 -28 -700 0
-595 28 0
-595 700 0
596 -595 -843 0
-596 595 0
-596 843 0
597 -930 -594 0
-597 930 0
-597 594 0
598 -39 -840 0
-598 39 0
-598 840 0
599 -598 -741 0
-599 598 0
-599 741 0
600 -931 -597 0
-600 931 0
-600 597 0
601 -746 -3 0
-601 746 0
-601 3 0
602 -601 -817 0
-602 601 0
-602 817 0
603 -932 -600 0
-603 932 0
-603 600 0
604 -712 -3 0
-604 712 0
-604 3 0
605 -604 -741 0
-605 604 0
-605 741 0
606 -933 -603 0
-606 933 0
-606 603 0
607 -35 -732 0
-607 35 0
-607 732 0
608 -607 -41 0
-608 607 0
-608 41 0
609 -934 -606 0
-609 934 0
-609 606 0
610 -50 -46 0
-610 50 0
-610 46 0
611 -610 -31 0
-611 610 0
-611 31 0
612 -935 -609 0
-612 935 0
-612 609 0
613 -36 -720 0
-613 36 0
-613 720 0
614 -613 -41 0
-614 613 0
-614 41 0
615 -936 -612 0
-615 936 0
-615 612 0
616 -840 -13 0
-616 840 0
-616 13 0
617 -616 -768 0
-617 616 0
-617 768 0
618 -937 -615 0
-618 937 0
-618 615 0
619 -27 -849 0
-619 27 0
-619 849 0
620 -619 -741 0
-620 619 0
-620 741 0
621 -938 -618 0
-621 938 0
-621 618 0
622 -791 -716 0
-622 791 0
-622 716 0
623 -622 -736 0
-623 622 0
-623 736 0
624 -939 -621 0
-624 939 0
-624 621 0
625 -763 -43 0
-625 763 0
-625 43 0
626 -625 -25 0
-626 625 0
-626 25 0
627 -940 -624 0
-627 940 0
-627 624 0
628 -806 -8 0
-628 806 0
-628 8 0
629 -628 -6 0
-629 628 0
-629 6 0
630 -941 -627 0
-630 941 0
-630 627 0
631 -731 -18 0
-631 731 0
-631 18 0
632 -631 -736 0
-632 631 0
-632 736 0
633 -942 -630 0
-633 942 0
-633 630 0
634 -736 -717 0
-634 736 0
-634 717 0
635 -634 -14 0
-635 634 0
-635 14 0
636 -943 -633 0
-636 943 0
-636 633 0
637 -30 -709 0
-637 30 0
-637 709 0
638 -637 -25 0
-638 637 0
-638 25 0
639 -944 -636 0
-639 944 0
-639 636 0
640 -749 -702 0
-640 749 0
-640 702 0
641 -640 -739 0
-641 640 0
-641 739 0
642 -945 -639 0
-642 945 0
-642 639 0
643 -713 -11 0
-643 713 0
-643 11 0
644 -643 -768 0
-644 643 0
-644 768 0
645 -946 -642 0
-645 946 0
-645 642 0
646 -868 -1 0
-646 868 0
-646 1 0
647 -646 -761 0
-647 646 0
-647 761 0
648 -947 -645 0
-648 947 0
-648 645 0
649 -29 -725 0
-649 29 0
-649 725 0
650 -649 -11 0
-650 649 0
-650 11 0
651 -948 -648 0
-651 948 0
-651 648 0
652 -33 -712 0
-652 33 0
-652 712 0
653 -652 -696 0
-653 652 0
-653 696 0
654 -949 -651 0
-654 949 0
-654 651 0
655 -35 -5 0
-655 35 0
-655 5 0
656 -655 -706 0
-656 655 0
-656 706 0
657 -950 -654 0
-657 950 0
-657 654 0
658 -46 -732 0
-658 46 0
-658 732 0
659 -658 -45 0
-659 658 0
-659 45 0
660 -951 -657 0
-660 951 0
-660 657 0
661 -758 -13 0
-661 758 0
-661 13 0
662 -661 -696 0
-662 661 0
-662 696 0
663 -952 -660 0
-663 952 0
-663 660 0
664 -47 -28 0
-664 47 0
-664 28 0
665 -664 -5 0
-665 664 0
-665 5 0
666 -953 -663 0
-666 953 0
-666 663 0
667 -34 -715 0
-667 34 0
-667 715 0
668 -667 -50 0
-668 667 0
-668 50 0
669 -954 -666 0
-669 954 0
-669 666 0
670 -749 -731 0
-670 749 0
-670 731 0
671 -670 -735 0
-671 670 0
-671 735 0
672 -955 -669 0
-672 955 0
-672 669 0
673 -19 -704 0
-673 19 0
-673 704 0
674 -673 -24 0
-674 673 0
-674 24 0
675 -956 -672 0
-675 956 0
-675 672 0
676 -46 -713 0
-676 46 0
-676 713 0
677 -676 -37 0
-677 676 0
-677 37 0
678 -957 -675 0
-678 957 0
-678 675 0
679 -39 -809 0
-679 39 0
-679 809 0
680 -679 -713 0
-680 679 0
-680 713 0
681 -958 -678 0
-681 958 0
-681 678 0
682 -235 -33 0
-682 235 0
-682 33 0
683 -959 -681 0
-683 959 0
-683 681 0
684 -35 -716 0
-684 35 0
-684 716 0
685 -684 -40 0
-685 684 0
-685 40 0
686 -960 -683 0
-686 960 0
-686 683 0
687 -739 -713 0
-687 739 0
-687 713 0
688 -687 -14 0
-688 687 0
-688 14 0
689 -961 -686 0
-689 961 0
-689 686 0
690 -806 -21 0
-690 806 0
-690 21 0
691 -690 -10 0
-691 690 0
-691 10 0
692 -962 -689 0
-692 962 0
-692 689 0
693 -50 -708 0
-693 50 0
-693 708 0
694 -693 -778 0
-694 693 0
-694 778 0
695 -963 -692 0
-695 963 0
-695 692 0
-696 -6 0
696 6 0
-697 -54 0
697 54 0
-698 -52 0
698 52 0
-699 -8 0
699 8 0
-700 -7 0
700 7 0
-701 -57 0
701 57 0
-702 -11 0
702 11 0
-703 -60 0
703 60 0
-704 -13 0
704 13 0
-705 -2 0
705 2 0
-706 -14 0
706 14 0
-707 -63 0
707 63 0
-708 -16 0
708 16 0
-709 -15 0
709 15 0
-710 -17 0
710 17 0
-711 -66 0
711 66 0
-712 -18 0
712 18 0
-713 -20 0
713 20 0
-714 -69 0
714 69 0
-715 -22 0
715 22 0
-716 -21 0
716 21 0
-717 -9 0
717 9 0
-718 -72 0
718 72 0
-719 -75 0
719 75 0
-720 -25 0
720 25 0
-721 -78 0
721 78 0
-722 -81 0
722 81 0
-723 -28 0
723 28 0
-724 -84 0
724 84 0
-725 -1 0
725 1 0
-726 -87 0
726 87 0
-727 -32 0
727 32 0
-728 -90 0
728 90 0
-729 -33 0
729 33 0
-730 -93 0
730 93 0
-731 -34 0
731 34 0
-732 -5 0
732 5 0
-733 -96 0
733 96 0
-734 -99 0
734 99 0
-735 -35 0
735 35 0
-736 -12 0
736 12 0
-737 -102 0
737 102 0
-738 -105 0
738 105 0
-739 -37 0
739 37 0
-740 -108 0
740 108 0
-741 -41 0
741 41 0
-742 -111 0
742 111 0
-743 -113 0
743 113 0
-744 -10 0
744 10 0
-745 -116 0
745 116 0
-746 -29 0
746 29 0
-747 -119 0
747 119 0
-748 -43 0
748 43 0
-749 -42 0
749 42 0
-750 -122 0
750 122 0
-751 -125 0
751 125 0
-752 -128 0
752 128 0
-753 -45 0
753 45 0
-754 -131 0
754 131 0
-755 -134 0
755 134 0
-756 -39 0
756 39 0
-757 -137 0
757 137 0
-758 -46 0
758 46 0
-759 -44 0
759 44 0
-760 -140 0
760 140 0
-761 -47 0
761 47 0
-762 -143 0
762 143 0
-763 -48 0
763 48 0
-764 -146 0
764 146 0
-765 -36 0
765 36 0
-766 -149 0
766 149 0
-767 -152 0
767 152 0
-768 -30 0
768 30 0
-769 -155 0
769 155 0
-770 -158 0
770 158 0
-771 -161 0
771 161 0
-772 -164 0
772 164 0
-773 -167 0
773 167 0
-774 -170 0
774 170 0
-775 -173 0
775 173 0
-776 -176 0
776 176 0
-777 -179 0
777 179 0
-778 -40 0
778 40 0
-779 -182 0
779 182 0
-780 -185 0
780 185 0
-781 -3 0
781 3 0
-782 -188 0
782 188 0
-783 -191 0
783 191 0
-784 -194 0
784 194 0
-785 -197 0
785 197 0
-786 -200 0
786 200 0
-787 -203 0
787 203 0
-788 -206 0
788 206 0
-789 -209 0
789 209 0
-790 -212 0
790 212 0
-791 -27 0
791 27 0
-792 -215 0
792 215 0
-793 -218 0
793 218 0
-794 -221 0
794 221 0
-795 -224 0
795 224 0
-796 -227 0
796 227 0
-797 -230 0
797 230 0
-798 -233 0
798 233 0
-799 -236 0
799 236 0
-800 -23 0
800 23 0
-801 -239 0
801 239 0
-802 -242 0
802 242 0
-803 -244 0
803 244 0
-804 -247 0
804 247 0
-805 -250 0
805 250 0
-806 -49 0
806 49 0
-807 -253 0
807 253 0
-808 -256 0
808 256 0
-809 -4 0
809 4 0
-810 -259 0
810 259 0
-811 -262 0
811 262 0
-812 -265 0
812 265 0
-813 -268 0
813 268 0
-814 -271 0
814 271 0
-815 -274 0
815 274 0
-816 -276 0
816 276 0
-817 -31 0
817 31 0
-818 -279 0
818 279 0
-819 -282 0
819 282 0
-820 -285 0
820 285 0
-821 -287 0
821 287 0
-822 -290 0
822 290 0
-823 -293 0
823 293 0
-824 -296 0
824 296 0
-825 -299 0
825 299 0
-826 -302 0
826 302 0
-827 -305 0
827 305 0
-828 -308 0
828 308 0
-829 -311 0
829 311 0
-830 -314 0
830 314 0
-831 -317 0
831 317 0
-832 -19 0
832 19 0
-833 -320 0
833 320 0
-834 -323 0
834 323 0
-835 -326 0
835 326 0
-836 -329 0
836 329 0
-837 -332 0
837 332 0
-838 -335 0
838 335 0
-839 -338 0
839 338 0
-840 -26 0
840 26 0
-841 -341 0
841 341 0
-842 -344 0
842 344 0
-843 -50 0
843 50 0
-844 -347 0
844 347 0
-845 -350 0
845 350 0
-846 -353 0
846 353 0
-847 -356 0
847 356 0
-848 -359 0
848 359 0
-849 -24 0
849 24 0
-850 -362 0
850 362 0
-851 -365 0
851 365 0
-852 -368 0
852 368 0
-853 -371 0
853 371 0
-854 -374 0
854 374 0
-855 -377 0
855 377 0
-856 -380 0
856 380 0
-857 -383 0
857 383 0
-858 -386 0
858 386 0
-859 -389 0
859 389 0
-860 -392 0
860 392 0
-861 -395 0
861 395 0
-862 -398 0
862 398 0
-863 -401 0
863 401 0
-864 -404 0
864 404 0
-865 -407 0
865 407 0
-866 -410 0
866 410 0
-867 -413 0
867 413 0
-868 -38 0
868 38 0
-869 -416 0
869 416 0
-870 -419 0
870 419 0
-871 -422 0
871 422 0
-872 -425 0
872 425 0
-873 -428 0
873 428 0
-874 -431 0
874 431 0
-875 -434 0
875 434 0
-876 -436 0
876 436 0
-877 -439 0
877 439 0
-878 -442 0
878 442 0
-879 -445 0
879 445 0
-880 -448 0
880 448 0
-881 -451 0
881 451 0
-882 -454 0
882 454 0
-883 -457 0
883 457 0
-884 -460 0
884 460 0
-885 -463 0
885 463 0
-886 -466 0
886 466 0
-887 -469 0
887 469 0
-888 -472 0
888 472 0
-889 -475 0
889 475 0
-890 -478 0
890 478 0
-891 -480 0
891 480 0
-892 -483 0
892 483 0
-893 -486 0
893 486 0
-894 -489 0
894 489 0
-895 -492 0
895 492 0
-896 -495 0
896 495 0
-897 -498 0
897 498 0
-898 -501 0
898 501 0
-899 -504 0
899 504 0
-900 -507 0
900 507 0
-901 -510 0
901 510 0
-902 -513 0
902 513 0
-903 -516 0
903 516 0
-904 -519 0
904 519 0
-905 -522 0
905 522 0
-906 -525 0
906 525 0
-907 -528 0
907 528 0
-908 -531 0
908 531 0
-909 -534 0
909 534 0
-910 -537 0
910 537 0
-911 -540 0
911 540 0
-912 -543 0
912 543 0
-913 -546 0
913 546 0
-914 -549 0
914 549 0
-915 -552 0
915 552 0
-916 -555 0
916 555 0
-917 -558 0
917 558 0
-918 -560 0
918 560 0
-919 -563 0
919 563 0
-920 -566 0
920 566 0
-921 -569 0
921 569 0
-922 -572 0
922 572 0
-923 -575 0
923 575 0
-924 -578 0
924 578 0
-925 -581 0
925 581 0
-926 -584 0
926 584 0
-927 -587 0
927 587 0
-928 -590 0
928 590 0
-929 -593 0
929 593 0
-930 -596 0
930 596 0
-931 -599 0
931 599 0
-932 -602 0
932 602 0
-933 -605 0
933 605 0
-934 -608 0
934 608 0
-935 -611 0
935 611 0
-936 -614 0
936 614 0
-937 -617 0
937 617 0
-938 -620 0
938 620 0
-939 -623 0
939 623 0
-940 -626 0
940 626 0
-941 -629 0
941 629 0
-942 -632 0
942 632 0
-943 -635 0
943 635 0
-944 -638 0
944 638 0
-945 -641 0
945 641 0
-946 -644 0
946 644 0
-947 -647 0
947 647 0
-948 -650 0
948 650 0
-949 -653 0
949 653 0
-950 -656 0
950 656 0
-951 -659 0
951 659 0
-952 -662 0
952 662 0
-953 -665 0
953 665 0
-954 -668 0
954 668 0
-955 -671 0
955 671 0
-956 -674 0
956 674 0
-957 -677 0
957 677 0
-958 -680 0
958 680 0
-959 -682 0
959 682 0
-960 -685 0
960 685 0
-961 -688 0
961 688 0
-962 -691 0
962 691 0
-963 -694 0
963 694 0
695 0
